100 1296946998
81 66 70 65 50 37 82 20 45 26 95 85 86 28 12 87 33 43 57 2 77 92 90 25 6 7 31 88 68 80 89 5 49 69 75 79 9 40 41 53 24 73 56 11 4 60 3 76 8 97 39 98 35 48 27 29 23 15 96 30 1 99 67 19 17 91 64 58 62 10 63 46 42 74 72 44 36 14 52 94 34 71 51 54 61 47 16 59 13 55 38 84 100 18 32 93 83 22 78 21 
